70
    1    20    27
    2    23    30
    3    27    26
    4    26    33
    5    31    38
    6    24    25
    7    55    53
    8    34    35
    9    27    33
   10    11    16
   11    59    65
   12     4    11
   13    22    22
   14    11     6
   15    70    70
   16    58    56
   17    40    45
   18    37    36
   19    11     5
   20    29    36
   21    72    69
   22    71    65
   23    57    50
   24     1     6
   25    47    44
   26    51    50
   27    60    62
   28    32    37
   29    23    29
   30    11    15
   31    20    23
   32    17    13
   33     5     7
   34    46    39
   35    29    28
   36    19    25
   37    56    58
   38    13     6
   39    50    54
   40    52    52
   41    40    39
   42    40    41
   43    34    36
   44    18    23
   45    64    65
   46    28    34
   47    47    45
   48    32    39
   49    53    57
   50    52    58
   51    44    40
   52    15    18
   53    23    25
   54    33    32
   55    12    14
   56    20    13
   57    22    19
   58    52    48
   59    65    64
   60    33    26
   61    14    10
   62    66    64
   63     3     9
   64     4     6
   65    46    41
   66     1     4
   67    41    38
   68    16    16
   69    25    22
   70    47    49
71
